NAME : tsp_276_sol.txt
COMMENT : OR-Tools Guided Local Search
TYPE : TOUR
DIMENSION : 50
COST : 5796
STATUS : ROUTING_SUCCESS
GAP : 0.00% (Reference Solution)
TOUR_SECTION
1
30
13
23
16
42
4
47
26
39
2
8
15
36
6
50
40
12
19
20
17
44
3
7
10
48
35
24
45
21
46
41
33
31
28
49
27
5
14
34
38
37
22
9
32
29
43
18
11
25
-1
